%%% static parameters %%%
timespan = 1;
Fact = [4];
Distr1 = [15];
Distr2 = [20];
Clients_N = [300];
Demand_W = [15];
Lt0 = [4];
Lt1 = [4];
SS_ = [0.85];
DS_D = [15];
K = [200];
MA = [500];
%%% dynamic parameters %%%
lost_ratio_sales_ret_th = 0.16150279836651216;
lost_ratio_sales_ret_w = 59;
lost_ratio_sales_dis_th = 0.06230840601303305;
lost_ratio_sales_dis_w = 56;
lost_ratio_sales_fac_th = 0.12618895571408592;
lost_ratio_sales_fac_w = 11;
stock_customer_MA_mean_relative_th = 0.029673682637124776;
stock_customer_MA_mean_relative_w = 80;
stock_distributor_MA_mean_relative_th = 0.6815449468680269;
stock_distributor_MA_mean_relative_w = 77;
stock_retailer_MA_mean_relative_th = 0.6898455094613718;
stock_retailer_MA_mean_relative_w = 31;
stock_factory_MA_mean_relative_th = 0.5137584486787621;
stock_factory_MA_mean_relative_w = 87;
